z3_origin/DDC_ProveIneq_ISSAC10_ex4e.txt
sat
(:max-memory         18.52
 :memory             18.43
 :nlsat-arith-var    3
 :nlsat-atoms        25
 :nlsat-bool-var     1
 :nlsat-clauses      23
 :nlsat-conflicts    1
 :nlsat-decisions    2
 :nlsat-propagations 20
 :nlsat-stages       4
 :num-allocs         64575
 :rlimit-count       6740
 :time               0.01
 :total-time         0.02)
